networks/zoo_46_304/zoo_46_304-lower.sol
<?xml version = "1.0" encoding="UTF-8" standalone="yes"?>
<CPLEXSolution version="1.2">
 <header
   problemName="networks/zoo_46_304/zoo_46_304-lower.lp"
   solutionName="incumbent"
   solutionIndex="-1"
   objectiveValue="20"
   solutionTypeValue="3"
   solutionTypeString="primal"
   solutionStatusValue="101"
   solutionStatusString="integer optimal solution"
   solutionMethodString="mip"
   primalFeasible="1"
   dualFeasible="1"
   MIPNodes="0"
   MIPIterations="0"
   writeLevel="3"/>
 <quality
   epInt="1.0000000000000001e-05"
   epRHS="9.9999999999999995e-07"
   maxIntInfeas="0"
   maxPrimalInfeas="0"
   maxX="1"
   maxSlack="1"/>
 <variables>
  <variable name="Y(1,6)" index="5" value="1"/>
  <variable name="Y(2,8)" index="49" value="1"/>
  <variable name="Y(3,9)" index="92" value="1"/>
  <variable name="Y(4,10)" index="135" value="1"/>
  <variable name="Y(5,18)" index="184" value="1"/>
  <variable name="Y(6,1)" index="210" value="1"/>
  <variable name="Y(7,3)" index="254" value="1"/>
  <variable name="Y(8,4)" index="297" value="1"/>
  <variable name="Y(9,5)" index="340" value="1"/>
  <variable name="Y(11,7)" index="426" value="1"/>
  <variable name="Y(15,13)" index="599" value="1"/>
  <variable name="Y(16,14)" index="642" value="1"/>
  <variable name="Y(17,15)" index="685" value="1"/>
  <variable name="Y(18,16)" index="728" value="1"/>
  <variable name="Y(19,17)" index="771" value="1"/>
  <variable name="Y(21,21)" index="859" value="1"/>
  <variable name="Y(22,22)" index="902" value="1"/>
  <variable name="Y(23,23)" index="945" value="1"/>
  <variable name="Y(25,2)" index="1009" value="1"/>
  <variable name="Y(124,20)" index="5184" value="1"/>
  <variable name="X(1,2,1)" index="12768" value="1"/>
  <variable name="X(1,4,5)" index="13076" value="1"/>
  <variable name="X(1,24,6)" index="13381" value="1"/>
  <variable name="X(2,1,6)" index="13685" value="1"/>
  <variable name="X(2,7,1)" index="13984" value="1"/>
  <variable name="X(2,25,25)" index="14312" value="1"/>
  <variable name="X(3,4,24)" index="14615" value="1"/>
  <variable name="X(3,22,5)" index="14900" value="1"/>
  <variable name="X(3,26,7)" index="15206" value="1"/>
  <variable name="X(4,1,24)" index="15527" value="1"/>
  <variable name="X(4,3,5)" index="15812" value="1"/>
  <variable name="X(4,27,8)" index="16119" value="1"/>
  <variable name="X(5,28,9)" index="16424" value="1"/>
  <variable name="X(6,8,56)" index="16775" value="1"/>
  <variable name="X(6,9,3)" index="17026" value="1"/>
  <variable name="X(6,29,1)" index="17328" value="1"/>
  <variable name="X(7,2,56)" index="17687" value="1"/>
  <variable name="X(7,8,1)" index="17936" value="1"/>
  <variable name="X(7,30,11)" index="18250" value="1"/>
  <variable name="X(8,5,9)" index="18552" value="1"/>
  <variable name="X(8,6,1)" index="18848" value="1"/>
  <variable name="X(8,7,56)" index="19207" value="1"/>
  <variable name="X(8,31,2)" index="19457" value="1"/>
  <variable name="X(9,6,109)" index="19868" value="1"/>
  <variable name="X(9,10,4)" index="20067" value="1"/>
  <variable name="X(9,32,3)" index="20370" value="1"/>
  <variable name="X(10,9,128)" index="20799" value="1"/>
  <variable name="X(10,13,15)" index="20990" value="1"/>
  <variable name="X(10,33,4)" index="21283" value="1"/>
  <variable name="X(12,9,146)" index="21729" value="1"/>
  <variable name="X(13,10,154)" index="22041" value="1"/>
  <variable name="X(13,15,16)" index="22207" value="1"/>
  <variable name="X(13,36,15)" index="22510" value="1"/>
  <variable name="X(14,15,33)" index="22832" value="1"/>
  <variable name="X(14,23,23)" index="23126" value="1"/>
  <variable name="X(14,37,16)" index="23423" value="1"/>
  <variable name="X(15,13,171)" index="23882" value="1"/>
  <variable name="X(15,14,16)" index="24031" value="1"/>
  <variable name="X(15,38,17)" index="24336" value="1"/>
  <variable name="X(16,17,68)" index="24691" value="1"/>
  <variable name="X(16,23,32)" index="24959" value="1"/>
  <variable name="X(16,39,18)" index="25249" value="1"/>
  <variable name="X(17,16,18)" index="25553" value="1"/>
  <variable name="X(17,18,69)" index="25908" value="1"/>
  <variable name="X(17,40,19)" index="26162" value="1"/>
  <variable name="X(18,17,18)" index="26465" value="1"/>
  <variable name="X(18,19,143)" index="26894" value="1"/>
  <variable name="X(18,41,5)" index="27060" value="1"/>
  <variable name="X(19,18,5)" index="27364" value="1"/>
  <variable name="X(19,21,143)" index="27806" value="1"/>
  <variable name="X(20,21,253)" index="28220" value="1"/>
  <variable name="X(20,22,249)" index="28520" value="1"/>
  <variable name="X(20,43,124)" index="28699" value="1"/>
  <variable name="X(21,19,5)" index="28884" value="1"/>
  <variable name="X(21,22,169)" index="29352" value="1"/>
  <variable name="X(21,44,21)" index="29508" value="1"/>
  <variable name="X(22,3,173)" index="29964" value="1"/>
  <variable name="X(22,20,124)" index="30219" value="1"/>
  <variable name="X(22,21,5)" index="30404" value="1"/>
  <variable name="X(22,45,22)" index="30725" value="1"/>
  <variable name="X(23,14,32)" index="31039" value="1"/>
  <variable name="X(23,16,67)" index="31378" value="1"/>
  <variable name="X(23,46,23)" index="31638" value="1"/>
 </variables>
</CPLEXSolution>
